saida/PL_exemplo4.lp_Dual
6 5
6 4
6 6
6 7

2 5
2 4
2 6
2 7

0 5
0 4
0 6
0 7

Dual
Balanceado: Sim
Status: Optimal
Valor Fobj: 9440
Tempo: 0.001349 second(s)